n_res = 4;
rc = [ 17, 16, 15, 17 ];
n_tasks = 30;
d = [ 1, 9, 10, 4, 8, 2, 4, 7, 4, 10, 1, 7, 3, 6, 3, 9, 4, 1, 1, 5, 6, 2, 1, 3, 4, 10, 10, 7, 4, 9 ];
rr = [| 17, 17, 17, 17, 17, 17, 17, 17, 17, 17, 17, 17, 17, 17, 17, 17, 17, 17, 17, 17, 17, 17, 17, 17, 17, 17, 17, 17, 17, 17
      | 16, 16, 16, 16, 16, 16, 16, 16, 16, 16, 16, 16, 16, 16, 16, 16, 16, 16, 16, 16, 16, 16, 16, 16, 16, 16, 16, 16, 16, 16
      | 15, 15, 15, 15, 15, 15, 15, 15, 15, 15, 15, 15, 15, 15, 15, 15, 15, 15, 15, 15, 15, 15, 15, 15, 15, 15, 15, 15, 15, 15
      | 17, 17, 17, 17, 17, 17, 17, 17, 17, 17, 17, 17, 17, 17, 17, 17, 17, 17, 17, 17, 17, 17, 17, 17, 17, 17, 17, 17, 17, 17|];
suc = [ { 5, 9, 26 },
       { 5, 10 },
       { 4, 6, 7 },
       { 12, 22, 24 },
       { 14, 18, 21 },
       { 10, 11, 13 },
       { 8, 11, 14 },
       { 12, 15, 16 },
       { 14, 16 },
       { 15, 22, 26 },
       { 20, 21 },
       { 17, 26, 27 },
       { 17, 21 },
       { 17, 23, 25 },
       { 18, 19 },
       { 18, 19 },
       { 28, 29, 30 },
       { 20 },
       { 20, 23 },
       { 24 },
       { 22, 24 },
       { 23, 25, 27 },
       { 29 },
       { 25, 27 },
       { 30 },
       { 28, 29 },
       { 28, 30 },
       {  },
       {  },
       {  } ];
